benchmarks/bfuzz0/57351876616588209133128913531153839424.smt2
(set-logic QF_FP)
(declare-const x0 (_ FloatingPoint 11 53))
(declare-const x1 (_ FloatingPoint 11 53))
(declare-const x2 (_ FloatingPoint 11 53))
(declare-const x3 (_ FloatingPoint 11 53))
(declare-const x4 (_ FloatingPoint 11 53))
(declare-const x5 (_ FloatingPoint 11 53))
(declare-const x6 (_ FloatingPoint 11 53))
(declare-const x7 (_ FloatingPoint 11 53))
(declare-const x8 (_ FloatingPoint 11 53))
(declare-const x9 (_ FloatingPoint 11 53))
(declare-const x10 (_ FloatingPoint 11 53))
(declare-const x11 (_ FloatingPoint 11 53))
(declare-const x12 (_ FloatingPoint 11 53))
(declare-const x13 (_ FloatingPoint 11 53))
(declare-const x14 (_ FloatingPoint 11 53))
(declare-const x15 (_ FloatingPoint 11 53))
(assert (fp.eq (fp.add RNE (fp.add RNE (fp.mul RNE (fp.mul RNE x7 x6) (fp.mul RNE x2 x11)) (fp.neg (fp.sub RNE x13 x11))) (fp.neg (fp.div RNE (fp.neg x3) (fp.mul RNE x5 x9)))) (fp.neg (fp.add RNE (fp.neg (fp.sub RNE x11 x11)) (fp.div RNE (fp.add RNE x6 x13) (fp.add RNE x9 x8))))))
(check-sat)
