db/data/57351876616588209133128913531153839424.z3.out
-------------------
2500.050933529
